NAME          DCAP_3_4_2_500_SS225
ROWS
 N  OBJ
 L  CON1
 L  CON2
 L  CON3
 L  CON4
 L  CON5
 L  CON6
 L  CON7
 L  CON8
 L  CON9
 L  CON10
 L  CON11
 L  CON12
 E  CON13
 E  CON14
 E  CON15
 E  CON16
 E  CON17
 E  CON18
 E  CON19
 E  CON20
COLUMNS
    x[1,1]    OBJ       6.180167      CON1      1.000000    
    x[1,1]    CON7      -1.000000     CON8      -1.000000   
    x[1,2]    OBJ       5.039546      CON2      1.000000    
    x[1,2]    CON8      -1.000000   
    x[2,1]    OBJ       6.732585      CON3      1.000000    
    x[2,1]    CON9      -1.000000     CON10     -1.000000   
    x[2,2]    OBJ       7.443064      CON4      1.000000    
    x[2,2]    CON10     -1.000000   
    x[3,1]    OBJ       6.563535      CON5      1.000000    
    x[3,1]    CON11     -1.000000     CON12     -1.000000   
    x[3,2]    OBJ       6.054841      CON6      1.000000    
    x[3,2]    CON12     -1.000000   
    MARKER    'MARKER'                'INTORG'
    u[1,1]    OBJ       48.076654     CON1      -1.000000   
    u[1,2]    OBJ       49.466655     CON2      -1.000000   
    u[2,1]    OBJ       49.996186     CON3      -1.000000   
    u[2,2]    OBJ       32.230043     CON4      -1.000000   
    u[3,1]    OBJ       20.066487     CON5      -1.000000   
    u[3,2]    OBJ       27.484319     CON6      -1.000000   
    y[1,1,1]  OBJ       5.127255      CON7      1.249417    
    y[1,1,1]  CON13     1.000000    
    y[1,1,2]  OBJ       5.287188      CON8      0.697175    
    y[1,1,2]  CON14     1.000000    
    y[1,2,1]  OBJ       5.196082      CON7      0.945205    
    y[1,2,1]  CON15     1.000000    
    y[1,2,2]  OBJ       9.060914      CON8      0.930524    
    y[1,2,2]  CON16     1.000000    
    y[1,3,1]  OBJ       6.377705      CON7      0.946261    
    y[1,3,1]  CON17     1.000000    
    y[1,3,2]  OBJ       8.353804      CON8      1.460678    
    y[1,3,2]  CON18     1.000000    
    y[1,4,1]  OBJ       5.162070      CON7      0.943847    
    y[1,4,1]  CON19     1.000000    
    y[1,4,2]  OBJ       6.344144      CON8      0.571978    
    y[1,4,2]  CON20     1.000000    
    y[2,1,1]  OBJ       6.583568      CON9      1.249417    
    y[2,1,1]  CON13     1.000000    
    y[2,1,2]  OBJ       8.456070      CON10     0.697175    
    y[2,1,2]  CON14     1.000000    
    y[2,2,1]  OBJ       9.943913      CON9      0.945205    
    y[2,2,1]  CON15     1.000000    
    y[2,2,2]  OBJ       9.144480      CON10     0.930524    
    y[2,2,2]  CON16     1.000000    
    y[2,3,1]  OBJ       5.088287      CON9      0.946261    
    y[2,3,1]  CON17     1.000000    
    y[2,3,2]  OBJ       8.352822      CON10     1.460678    
    y[2,3,2]  CON18     1.000000    
    y[2,4,1]  OBJ       8.065789      CON9      0.943847    
    y[2,4,1]  CON19     1.000000    
    y[2,4,2]  OBJ       8.568903      CON10     0.571978    
    y[2,4,2]  CON20     1.000000    
    y[3,1,1]  OBJ       6.475593      CON11     1.249417    
    y[3,1,1]  CON13     1.000000    
    y[3,1,2]  OBJ       6.824277      CON12     0.697175    
    y[3,1,2]  CON14     1.000000    
    y[3,2,1]  OBJ       6.489088      CON11     0.945205    
    y[3,2,1]  CON15     1.000000    
    y[3,2,2]  OBJ       5.104511      CON12     0.930524    
    y[3,2,2]  CON16     1.000000    
    y[3,3,1]  OBJ       5.302246      CON11     0.946261    
    y[3,3,1]  CON17     1.000000    
    y[3,3,2]  OBJ       9.907531      CON12     1.460678    
    y[3,3,2]  CON18     1.000000    
    y[3,4,1]  OBJ       8.057789      CON11     0.943847    
    y[3,4,1]  CON19     1.000000    
    y[3,4,2]  OBJ       9.511860      CON12     0.571978    
    y[3,4,2]  CON20     1.000000    
    z[1,1]    OBJ       845.615192    CON13     1.000000    
    z[1,2]    OBJ       911.539445    CON14     1.000000    
    z[2,1]    OBJ       589.648982    CON15     1.000000    
    z[2,2]    OBJ       790.098208    CON16     1.000000    
    z[3,1]    OBJ       535.738042    CON17     1.000000    
    z[3,2]    OBJ       713.495390    CON18     1.000000    
    z[4,1]    OBJ       706.584370    CON19     1.000000    
    z[4,2]    OBJ       783.065388    CON20     1.000000    
    MARKER    'MARKER'                 'INTEND'
RHS
    RHS       CON1      -0.000000     CON2      -0.000000   
    RHS       CON3      -0.000000     CON4      -0.000000   
    RHS       CON5      -0.000000     CON6      -0.000000   
    RHS       CON7      -0.000000     CON8      -0.000000   
    RHS       CON9      -0.000000     CON10     -0.000000   
    RHS       CON11     -0.000000     CON12     -0.000000   
    RHS       CON13     1.000000      CON14     1.000000    
    RHS       CON15     1.000000      CON16     1.000000    
    RHS       CON17     1.000000      CON18     1.000000    
    RHS       CON19     1.000000      CON20     1.000000    
BOUNDS
 BV BOUND     u[1,1]  
 BV BOUND     u[1,2]  
 BV BOUND     u[2,1]  
 BV BOUND     u[2,2]  
 BV BOUND     u[3,1]  
 BV BOUND     u[3,2]  
 BV BOUND     y[1,1,1]
 BV BOUND     y[1,1,2]
 BV BOUND     y[1,2,1]
 BV BOUND     y[1,2,2]
 BV BOUND     y[1,3,1]
 BV BOUND     y[1,3,2]
 BV BOUND     y[1,4,1]
 BV BOUND     y[1,4,2]
 BV BOUND     y[2,1,1]
 BV BOUND     y[2,1,2]
 BV BOUND     y[2,2,1]
 BV BOUND     y[2,2,2]
 BV BOUND     y[2,3,1]
 BV BOUND     y[2,3,2]
 BV BOUND     y[2,4,1]
 BV BOUND     y[2,4,2]
 BV BOUND     y[3,1,1]
 BV BOUND     y[3,1,2]
 BV BOUND     y[3,2,1]
 BV BOUND     y[3,2,2]
 BV BOUND     y[3,3,1]
 BV BOUND     y[3,3,2]
 BV BOUND     y[3,4,1]
 BV BOUND     y[3,4,2]
 BV BOUND     z[1,1]  
 BV BOUND     z[1,2]  
 BV BOUND     z[2,1]  
 BV BOUND     z[2,2]  
 BV BOUND     z[3,1]  
 BV BOUND     z[3,2]  
 BV BOUND     z[4,1]  
 BV BOUND     z[4,2]  
ENDATA
